(set-logic ALL)
(declare-const k Int)
(declare-fun s () (_ BitVec k))
(declare-fun t () (_ BitVec k))
(assert (distinct (bvmul s (bvshl (bvshl (_ bv0 k) (_ bv1 k)) t)) (bvshl (bvshl s t) (_ bv1 k))))
(check-sat)
